
******************************************************************************
This program contains Ipopt, a library for large-scale nonlinear optimization.
 Ipopt is released as open source code under the Eclipse Public License (EPL).
         For more information visit http://projects.coin-or.org/Ipopt
******************************************************************************

This is Ipopt version 3.12.6, running with linear solver ma57.

Number of nonzeros in equality constraint Jacobian...:        9
Number of nonzeros in inequality constraint Jacobian.:        0
Number of nonzeros in Lagrangian Hessian.............:        6

Total number of variables............................:        3
                     variables with only lower bounds:        1
                variables with lower and upper bounds:        0
                     variables with only upper bounds:        0
Total number of equality constraints.................:        3
Total number of inequality constraints...............:        0
        inequality constraints with only lower bounds:        0
   inequality constraints with lower and upper bounds:        0
        inequality constraints with only upper bounds:        0

iter    objective    inf_pr   inf_du lg(mu)  ||d||  lg(rg) alpha_du alpha_pr  ls
   0  0.0000000e+00 7.11e+01 1.00e+00  -1.0 0.00e+00    -  0.00e+00 0.00e+00   0
   1  0.0000000e+00 2.31e+01 2.16e+10  -1.0 4.38e+01  -2.0 9.91e-01 1.00e+00h  1
Warning: SOC step rejected due to evaluation error
   2  0.0000000e+00 5.81e+02 1.59e+13  -1.0 1.56e+02    -  1.00e+00 5.00e-01h  2
   3  0.0000000e+00 2.65e+02 2.93e+13  -1.0 1.18e+03    -  1.00e+00 1.33e-01h  3
   4  0.0000000e+00 4.80e+01 4.56e+14  -1.0 1.84e+04    -  1.00e+00 3.97e-02h  3
Warning: SOC step rejected due to evaluation error
   5  0.0000000e+00 3.90e+05 1.38e+20  -1.0 1.51e+05    -  7.06e-02 6.25e-02h  5
   6  0.0000000e+00 9.68e+03 3.39e+18  -1.0 1.02e+04    -  1.00e+00 1.00e+00h  1
   7  0.0000000e+00 9.09e+03 3.18e+18  -1.0 8.37e+00    -  1.00e+00 6.25e-02h  5
   8  0.0000000e+00 8.95e+03 3.13e+18  -1.0 3.06e+01    -  1.00e+00 1.56e-02h  7
   9  0.0000000e+00 8.91e+03 3.12e+18  -1.0 3.65e+01    -  1.00e+00 3.91e-03h  9
iter    objective    inf_pr   inf_du lg(mu)  ||d||  lg(rg) alpha_du alpha_pr  ls
  10  0.0000000e+00 8.91e+03 3.12e+18  -1.0 3.80e+01    -  1.00e+00 1.22e-04h 14
  11  0.0000000e+00 8.91e+03 3.12e+18  -1.0 3.81e+01    -  1.00e+00 3.05e-05h 16
  12  0.0000000e+00 2.62e+03 1.01e+18  -1.0 3.81e+01    -  1.00e+00 1.00e+00h  1
  13  0.0000000e+00 7.61e+01 2.66e+18  -1.0 1.49e+03    -  1.00e+00 7.65e-01h  1
  14r 0.0000000e+00 7.61e+01 9.99e+02   1.9 0.00e+00  19.8 0.00e+00 3.46e-07R 21
  15r 0.0000000e+00 7.76e+03 9.72e+02   1.9 4.22e+04    -  3.70e-01 1.78e-03f  1
  16r 0.0000000e+00 6.19e+03 7.74e+02   1.9 7.29e+01    -  9.79e-01 2.08e-01f  1
  17r 0.0000000e+00 1.12e+03 1.53e+03   1.9 2.30e+01    -  1.00e+00 1.00e+00f  1
  18r 0.0000000e+00 1.64e+02 2.54e+02   1.9 8.10e+01    -  1.00e+00 1.00e+00f  1
  19r 0.0000000e+00 3.50e+04 3.06e+07   1.2 2.08e+02    -  4.20e-01 3.12e-01f  2
iter    objective    inf_pr   inf_du lg(mu)  ||d||  lg(rg) alpha_du alpha_pr  ls
  20r 0.0000000e+00 1.36e+04 1.20e+07   1.2 1.43e+03    -  6.35e-01 6.08e-01h  1
  21r 0.0000000e+00 1.05e+03 1.04e+06   1.2 5.96e+02    -  1.00e+00 1.00e+00h  1
  22r 0.0000000e+00 9.89e+02 8.34e+05   1.2 2.09e+00   4.0 4.02e-02 6.44e-02h  1
  23r 0.0000000e+00 5.45e+02 2.12e+06   1.2 2.62e+00   3.5 1.92e-01 5.73e-01h  1
  24r 0.0000000e+00 5.39e+02 2.09e+06   1.2 3.17e+01    -  3.38e-01 1.20e-02h  1
  25r 0.0000000e+00 9.97e+01 1.45e+05   1.2 2.74e+01    -  1.15e-01 1.00e+00h  1
  26r 0.0000000e+00 3.43e+01 6.87e+04   1.2 4.49e+00    -  1.00e+00 7.37e-01f  1
  27r 0.0000000e+00 3.66e+01 3.49e+04   1.2 9.02e+00    -  1.00e+00 1.00e+00h  1
  28r 0.0000000e+00 4.58e+01 2.01e+04   1.2 2.41e+01    -  1.00e+00 1.00e+00f  1
  29r 0.0000000e+00 4.99e+01 8.13e+03   1.2 5.93e+01    -  1.00e+00 1.00e+00f  1
iter    objective    inf_pr   inf_du lg(mu)  ||d||  lg(rg) alpha_du alpha_pr  ls
  30r 0.0000000e+00 6.45e+01 4.96e+03   1.2 1.09e+02    -  1.00e+00 1.00e+00f  1
  31r 0.0000000e+00 2.32e+02 9.41e+05   1.2 1.31e+02    -  1.95e-01 1.00e+00f  1
  32r 0.0000000e+00 1.99e+02 8.66e+05   1.2 2.35e+02    -  1.26e-03 7.59e-02f  1
  33r 0.0000000e+00 1.95e+02 8.49e+05   1.2 8.65e+00   3.0 2.04e-01 1.87e-02f  1
  34r 0.0000000e+00 9.48e+01 2.78e+05   1.2 3.59e+01    -  1.00e+00 8.75e-01f  1
  35r 0.0000000e+00 9.41e+01 2.76e+05   1.2 7.31e+01    -  4.42e-02 5.69e-03h  1
  36r 0.0000000e+00 7.11e+01 7.61e+03   1.2 6.67e+01    -  1.99e-01 1.00e+00h  1
  37r 0.0000000e+00 7.11e+01 6.86e+03   1.2 5.58e+01   4.4 1.64e-03 2.81e-03f  1
  38r 0.0000000e+00 7.10e+01 7.01e+03   1.2 3.05e+02   3.9 2.25e-03 3.07e-04h  1
  39r 0.0000000e+00 4.55e+01 3.18e+05   1.2 6.65e+01   4.3 3.41e-03 1.37e-02f  5
iter    objective    inf_pr   inf_du lg(mu)  ||d||  lg(rg) alpha_du alpha_pr  ls
  40r 0.0000000e+00 4.53e+01 3.18e+05   1.2 8.35e+01    -  1.97e-02 1.56e-03f  1
  41r 0.0000000e+00 4.22e+01 3.03e+05   1.2 2.92e+01    -  3.00e-04 3.50e-02h  1
  42r 0.0000000e+00 2.37e+01 1.35e+05   1.2 1.12e+00   3.8 8.28e-01 2.95e-01h  1
  43r 0.0000000e+00 2.59e+01 1.33e+05   1.2 2.17e+02    -  1.35e-03 1.52e-02f  1
  44r 0.0000000e+00 7.16e+00 1.33e+04   1.2 3.90e-01   3.4 1.00e+00 5.95e-01f  1
  45r 0.0000000e+00 7.56e+00 1.31e+04   1.2 3.98e+01    -  9.84e-02 1.78e-02f  1
  46r 0.0000000e+00 1.03e+01 4.68e+03   1.2 6.01e+00    -  1.00e+00 8.38e-01f  1
  47r 0.0000000e+00 2.29e+00 2.39e+03   1.2 1.17e+00   2.9 1.00e+00 1.00e+00f  1
  48r 0.0000000e+00 1.11e+00 1.03e+03   1.2 4.97e-01   3.3 1.00e+00 1.00e+00f  1
  49r 0.0000000e+00 8.60e+00 9.17e+02   1.2 1.32e+00   2.8 1.00e+00 1.00e+00f  1
iter    objective    inf_pr   inf_du lg(mu)  ||d||  lg(rg) alpha_du alpha_pr  ls
  50r 0.0000000e+00 9.20e+00 8.47e+02   1.2 3.14e+00   2.4 1.00e+00 1.80e-01f  1
  51r 0.0000000e+00 7.62e+00 9.08e+02   0.5 4.91e-01   1.9 3.40e-01 1.72e-01f  1
  52r 0.0000000e+00 7.34e+00 7.79e+02   0.5 2.34e+00   1.4 4.01e-02 1.13e-01f  1
  53r 0.0000000e+00 5.63e+00 5.70e+02   0.5 1.96e-01   1.8 1.00e+00 2.32e-01h  1
  54r 0.0000000e+00 2.22e+00 1.17e+02   0.5 9.27e-01   1.4 1.00e+00 1.00e+00f  1
  55r 0.0000000e+00 8.58e+01 8.47e+01  -0.2 1.58e+01   0.9 1.00e+00 4.60e-01f  1
  56r 0.0000000e+00 7.28e+01 8.05e+02  -0.2 3.45e+00    -  1.00e+00 2.40e-01f  1
  57r 0.0000000e+00 7.13e+01 2.95e+02  -0.2 3.13e+01    -  2.01e-02 3.13e-02h  1
  58r 0.0000000e+00 7.12e+01 2.97e+02  -0.2 2.71e+02    -  9.49e-04 6.50e-04h  1
  59r 0.0000000e+00 7.12e+01 4.42e+02  -0.2 3.61e+02    -  2.26e-04 3.41e-04h  1
iter    objective    inf_pr   inf_du lg(mu)  ||d||  lg(rg) alpha_du alpha_pr  ls
  60r 0.0000000e+00 7.11e+01 2.69e+03  -0.2 4.62e+02    -  2.71e-05 7.72e-03h  1
  61r 0.0000000e+00 7.11e+01 2.87e+03  -0.2 7.10e+01   3.1 5.93e-04 2.38e-03h  1
  62r 0.0000000e+00 7.11e+01 3.72e+03  -0.2 2.98e+02   2.6 8.23e-04 2.84e-05h  1
  63r 0.0000000e+00 7.11e+01 3.72e+03  -0.2 2.22e+04    -  0.00e+00 2.17e-07R  2
  64r 0.0000000e+00 7.11e+01 2.31e+01  -0.2 3.65e-02   3.1 9.90e-01 1.00e+00f  1
  65r 0.0000000e+00 7.11e+01 8.08e+01  -0.9 1.33e-01   2.6 9.99e-01 1.00e+00f  1
  66r 0.0000000e+00 7.10e+01 5.05e+02  -0.9 3.18e-01   3.0 1.00e+00 1.00e+00f  1
  67r 0.0000000e+00 7.09e+01 8.26e+02  -0.9 3.29e-01   3.4 1.00e+00 1.00e+00f  1
  68r 0.0000000e+00 7.08e+01 8.43e+02  -0.9 1.15e-01   3.9 1.00e+00 1.00e+00f  1
  69r 0.0000000e+00 7.04e+01 1.02e+03  -0.9 3.69e-01   3.4 1.00e+00 1.00e+00f  1
iter    objective    inf_pr   inf_du lg(mu)  ||d||  lg(rg) alpha_du alpha_pr  ls
  70r 0.0000000e+00 6.53e+01 3.93e+03  -0.9 2.24e+00   2.9 1.00e+00 1.00e+00f  1
  71r 0.0000000e+00 6.78e+01 4.08e+04  -0.9 4.24e-01   5.1 6.57e-02 1.00e+00f  1
  72r 0.0000000e+00 6.81e+01 2.91e+04  -0.9 1.10e-01   5.6 9.32e-02 5.10e-01f  1
  73r 0.0000000e+00 6.82e+01 2.29e+04  -0.9 2.43e-02   6.0 3.54e-01 1.00e+00f  1
  74r 0.0000000e+00 6.82e+01 1.05e+03  -0.9 3.20e-03   5.5 1.00e+00 1.00e+00f  1
  75r 0.0000000e+00 6.82e+01 1.06e+03  -0.9 1.10e-02   5.0 1.00e+00 7.15e-02f  1
  76r 0.0000000e+00 6.82e+01 1.17e+03  -0.9 3.47e-02   4.6 1.00e+00 5.39e-01f  1
  77r 0.0000000e+00 6.81e+01 1.24e+03  -0.9 1.02e-01   4.1 1.00e+00 1.00e+00f  1
  78r 0.0000000e+00 6.78e+01 1.23e+03  -0.9 3.05e-01   3.6 1.00e+00 1.00e+00f  1
  79r 0.0000000e+00 6.68e+01 1.23e+03  -0.9 9.15e-01   3.1 1.00e+00 1.00e+00f  1
iter    objective    inf_pr   inf_du lg(mu)  ||d||  lg(rg) alpha_du alpha_pr  ls
  80r 0.0000000e+00 6.38e+01 1.25e+03  -0.9 2.77e+00   2.7 1.00e+00 1.00e+00f  1
  81r 0.0000000e+00 6.44e+01 1.24e+03  -0.9 8.25e+00   2.2 1.00e+00 1.00e+00f  1
  82r 0.0000000e+00 8.73e+01 6.90e+03  -0.9 2.42e+01   1.7 9.49e-01 1.00e+00f  1
  83r 0.0000000e+00 5.08e+01 4.97e+03  -0.9 6.77e+01   1.2 1.00e+00 4.40e-01f  1
  84r 0.0000000e+00 5.10e+01 4.97e+03  -0.9 2.06e+02   0.7 6.46e-01 1.40e-03f  1
  85r 0.0000000e+00 5.10e+01 4.93e+03  -0.9 1.73e+02    -  3.35e-01 2.56e-03f  1
  86r 0.0000000e+00 4.86e+01 4.64e+03  -0.9 3.97e+01    -  4.47e-02 2.86e-02f  1
  87r 0.0000000e+00 4.60e+01 4.40e+03  -0.9 1.49e+00    -  2.72e-03 5.33e-02f  1
  88r 0.0000000e+00 3.18e+01 3.42e+03  -0.9 1.87e+00    -  1.00e+00 2.51e-01f  1
  89r 0.0000000e+00 1.05e+01 1.41e+03  -0.9 2.06e+00    -  1.00e+00 8.56e-01h  1
iter    objective    inf_pr   inf_du lg(mu)  ||d||  lg(rg) alpha_du alpha_pr  ls
  90r 0.0000000e+00 1.53e+00 5.33e+02  -0.9 4.63e+00   0.3 1.00e+00 1.00e+00H  1
  91r 0.0000000e+00 1.84e+00 5.60e+01  -0.9 4.73e+00    -  1.00e+00 1.00e+00F  1
  92r 0.0000000e+00 4.24e+01 8.06e+00  -0.9 1.45e+01    -  1.00e+00 1.00e+00f  1
  93r 0.0000000e+00 7.71e+02 4.57e+01  -0.9 1.97e+02    -  1.00e+00 1.00e+00f  1
  94r 0.0000000e+00 1.40e+02 1.20e+02  -0.9 7.25e+01    -  1.00e+00 1.00e+00f  1
  95r 0.0000000e+00 1.17e+02 2.33e+02  -0.9 9.45e+02    -  1.00e+00 2.50e-01h  3
  96r 0.0000000e+00 7.77e+00 6.07e+01  -0.9 9.20e+02    -  1.00e+00 2.50e-01h  3
  97r 0.0000000e+00 3.35e+00 3.36e+01  -0.9 8.19e+02    -  1.00e+00 2.50e-01h  3
  98r 0.0000000e+00 3.28e+00 3.13e+01  -0.9 6.18e+02    -  1.00e+00 6.25e-02h  5
  99r 0.0000000e+00 3.18e+00 2.92e+01  -0.9 5.79e+02    -  1.00e+00 6.25e-02h  5
iter    objective    inf_pr   inf_du lg(mu)  ||d||  lg(rg) alpha_du alpha_pr  ls
 100r 0.0000000e+00 2.95e+00 3.39e+00  -0.9 5.43e+02    -  1.00e+00 1.00e+00H  1
 101r 0.0000000e+00 3.41e-01 1.43e+00  -0.9 1.14e-01    -  1.00e+00 1.00e+00h  1
 102r 0.0000000e+00 3.41e-01 3.51e+00  -2.4 1.30e-03    -  1.00e+00 1.00e+00f  1
 103r 0.0000000e+00 3.41e-01 7.34e-02  -2.4 1.48e+00    -  1.00e+00 1.00e+00h  1
 104r 0.0000000e+00 3.41e-01 5.67e-01  -3.6 7.75e-04    -  1.00e+00 1.00e+00f  1
 105r 0.0000000e+00 3.41e-01 3.43e-02  -3.6 5.40e+00    -  1.00e+00 1.00e+00f  1
 106r 0.0000000e+00 3.41e-01 3.04e-08  -3.6 2.01e-03    -  1.00e+00 1.00e+00h  1
 107r 0.0000000e+00 3.41e-01 1.86e-01  -8.2 1.06e-05    -  1.00e+00 1.00e+00f  1
 108r 0.0000000e+00 7.30e+00 1.24e+00  -8.2 4.65e+02    -  1.00e+00 1.00e+00f  1
 109r 0.0000000e+00 3.92e-01 1.24e-01  -8.2 1.75e+02    -  1.00e+00 1.00e+00h  1
iter    objective    inf_pr   inf_du lg(mu)  ||d||  lg(rg) alpha_du alpha_pr  ls
 110r 0.0000000e+00 3.41e-01 8.48e-05  -8.2 1.43e+00    -  1.00e+00 1.00e+00h  1

Number of Iterations....: 110

                                   (scaled)                 (unscaled)
Objective...............:   0.0000000000000000e+00    0.0000000000000000e+00
Dual infeasibility......:   1.0066166616730335e-03    1.0066166616730335e-03
Constraint violation....:   3.4121191949088825e-01    3.4121191949088825e-01
Complementarity.........:   6.7766190135030156e-09    6.7766190135030156e-09
Overall NLP error.......:   3.4121191949088825e-01    3.4121191949088825e-01


Number of objective function evaluations             = 224
Number of objective gradient evaluations             = 16
Number of equality constraint evaluations            = 234
Number of inequality constraint evaluations          = 0
Number of equality constraint Jacobian evaluations   = 114
Number of inequality constraint Jacobian evaluations = 0
Number of Lagrangian Hessian evaluations             = 111
Total CPU secs in IPOPT (w/o function evaluations)   =      0.037
Total CPU secs in NLP function evaluations           =      0.000

EXIT: Converged to a point of local infeasibility. Problem may be infeasible.
Note: The following floating-point exceptions are signalling: IEEE_OVERFLOW_FLAG

************************ CUTEst statistics ************************


 Package used            :  IPOPT
 Problem                 :  PFIT2     
 # variables             =               3
 # constraints           =               3
 # objective functions   =        0.2410000E+03
 # objective gradients   =        0.1700000E+02
 # objective Hessians    =        0.1110000E+03
 # Hessian-vector prdct  =        0.0000000E+00
 # constraints functions =        0.3500000E+03
 # constraints gradients =        0.1160000E+03
 # constraints Hessians  =        0.1110000E+03
 Exit code               =               2
 Final f                 =   0.0000000E+00
 Set up time             =            0.00 seconds
 Solve time              =            0.13 seconds


******************************************************************

System Time =       0.0410000011 s.
